
Log started (V11.0.0) Wed Apr 16 12:52:02 2008

Tried aggregator 1 time.
Reduced MIP has 110 rows, 1001 columns, and 2010 nonzeros.
Presolve time =    0.02 sec.
Clique table members: 100.
MIP emphasis: balance optimality and feasibility.
MIP search method: dynamic search.
Parallel mode: none, using 1 thread.
Root relaxation solution time =    0.01 sec.

        Nodes                                         Cuts/
   Node  Left     Objective  IInf  Best Integer     Best Node    ItCnt     Gap

*     0+    0                        15167.0000     1101.9657      154   92.73%
*     0+    0                         1136.0000     1101.9657      154    3.00%
      0     0     1102.4486    21     1136.0000      Fract: 5      164    2.95%
      0     0     1103.5784    33     1136.0000       Cuts: 9      192    2.85%
      0     0     1104.1235    38     1136.0000       Cuts: 5      213    2.81%
      0     0     1104.8804    43     1136.0000       Cuts: 4      235    2.74%
      0     0     1105.0648    44     1136.0000    MIRcuts: 3      250    2.72%
      0     0     1105.2325    46     1136.0000    MIRcuts: 1      260    2.71%
      0     0     1105.3837    54     1136.0000       Cuts: 5      280    2.70%
      0     0     1105.6884    50     1136.0000    MIRcuts: 3      298    2.67%
      0     0     1105.8962    48     1136.0000    MIRcuts: 1      306    2.65%
      0     0     1106.1303    52     1136.0000    MIRcuts: 3      318    2.63%
      0     0     1106.1851    57     1136.0000       Cuts: 4      327    2.62%
      0     0     1106.2813    56     1136.0000       Cuts: 3      335    2.62%
*     0+    0                         1131.0000     1106.2813      335    2.19%
*     0+    0                         1112.0000     1106.2813      335    0.51%
      0     2     1107.0000    46     1112.0000     1106.2813      335    0.51%
    100    82     1109.1942    30     1112.0000     1107.0000     2231    0.45%
    200   157     1110.2391    24     1112.0000     1107.0000     6477    0.45%
    300   222     1108.0000    37     1112.0000     1107.0000    10069    0.45%
    400   299     1108.0000    28     1112.0000     1107.0000    14186    0.45%
    500   375     1111.0000    23     1112.0000     1111.0000    20266    0.09%
    600   328     1111.0000    43     1112.0000     1111.0000    31732    0.09%
    700   259    infeasible           1112.0000     1111.0000    53483    0.09%
    800   186     1111.0000    59     1112.0000     1111.0000    85715    0.09%
    900   118     1111.0000    68     1112.0000     1111.0000   127219    0.09%
   1000    85     1111.0000    73     1112.0000     1111.0000   169764    0.09%
Elapsed time =  27.44 sec. (tree size =  0.03 MB, solutions = 4)
   1100   106     1111.0000    62     1112.0000     1111.0000   214663    0.09%
   1200   117    infeasible           1112.0000     1111.0000   266467    0.09%
   1300   121    infeasible           1112.0000     1111.0000   326609    0.09%
   1400   136     1111.0000    59     1112.0000     1111.0000   387891    0.09%
   1500   140    infeasible           1112.0000     1111.0000   440599    0.09%
   1600   151     1111.0000    84     1112.0000     1111.0000   494220    0.09%
   1700   167    infeasible           1112.0000     1111.0000   549648    0.09%
   1800   187    infeasible           1112.0000     1111.0000   604310    0.09%
*  1833     0      integral     0     1111.0000     1111.0000   619024    0.00%

Cover cuts applied:  525
Flow cuts applied:  2
Mixed integer rounding cuts applied:  9
Gomory fractional cuts applied:  14

Solution pool: 5 solutions saved.

MIP - Integer optimal solution:  Objective = 1.1110000000e+003
Solution time =  138.42 sec.  Iterations = 619024  Nodes = 1834


Incumbent solution
Variable Name           Solution Value
Cmax                       1111.000000
X_1_2                         1.000000
X_2_5                         1.000000
X_3_6                         1.000000
X_4_8                         1.000000
X_5_10                        1.000000
X_6_4                         1.000000
X_7_5                         1.000000
X_8_9                         1.000000
X_9_4                         1.000000
X_10_10                       1.000000
X_11_1                        1.000000
X_12_1                        1.000000
X_13_1                        1.000000
X_14_8                        1.000000
X_15_8                        1.000000
X_16_6                        1.000000
X_17_1                        1.000000
X_18_5                        1.000000
X_19_7                        1.000000
X_20_4                        1.000000
X_21_2                        1.000000
X_22_9                        1.000000
X_23_5                        1.000000
X_24_1                        1.000000
X_25_8                        1.000000
X_26_6                        1.000000
X_27_2                        1.000000
X_28_3                        1.000000
X_29_2                        1.000000
X_30_3                        1.000000
X_31_7                        1.000000
X_32_6                        1.000000
X_33_5                        1.000000
X_34_2                        0.000000
X_34_3                        1.000000
X_35_10                       1.000000
X_36_10                       1.000000
X_37_7                        1.000000
X_38_6                        1.000000
X_39_6                        1.000000
X_40_2                        1.000000
X_41_4                        1.000000
X_42_10                       1.000000
X_43_3                        1.000000
X_44_8                        1.000000
X_45_9                        1.000000
X_46_8                        0.000000
X_46_9                        1.000000
X_47_8                        1.000000
X_48_1                        1.000000
X_49_6                        1.000000
X_50_4                        1.000000
X_51_8                       -0.000000
X_51_10                       1.000000
X_52_1                        1.000000
X_53_5                        1.000000
X_54_9                        1.000000
X_55_5                        1.000000
X_56_8                        1.000000
X_56_9                        0.000000
X_56_10                      -0.000000
X_57_4                        1.000000
X_58_7                        1.000000
X_59_6                        1.000000
X_60_3                        1.000000
X_61_2                        1.000000
X_62_10                       1.000000
X_63_6                        1.000000
X_63_8                        0.000000
X_64_10                       1.000000
X_65_2                        1.000000
X_66_2                        1.000000
X_67_3                        1.000000
X_68_1                        1.000000
X_69_4                        1.000000
X_70_8                        1.000000
X_71_7                        1.000000
X_72_7                        1.000000
X_73_6                        1.000000
X_74_2                        1.000000
X_75_7                        1.000000
X_76_4                        1.000000
X_77_7                        1.000000
X_78_4                        1.000000
X_79_2                        1.000000
X_80_5                        1.000000
X_81_10                       1.000000
X_82_9                        1.000000
X_83_7                        1.000000
X_84_3                        1.000000
X_85_8                        1.000000
X_86_1                        1.000000
X_87_10                       1.000000
X_88_9                        1.000000
X_89_2                       -0.000000
X_89_8                        1.000000
X_90_3                        1.000000
X_91_6                        0.000000
X_91_9                        1.000000
X_92_7                        1.000000
X_92_9                       -0.000000
X_93_3                        1.000000
X_94_5                        1.000000
X_95_3                        1.000000
X_96_9                        1.000000
X_97_1                        1.000000
X_98_9                        1.000000
X_99_4                        1.000000
X_100_5                       1.000000
All other variables in the range 1-1001 are 0.
